
  16    0


   0  10 2 3 4 5 6 7 12 13 14 15 
   9   3 11 9 8 
   7   2 10 9 
   6   1 9 
  10   1 8 
   3   1 8 
   4   1 8 
   6   1 16
   7   1 16
   9   1 16
  10   1 16
   9   1 16
   5   1 16
  10   1 16
   9   1 16
   0   0 
